p cnf 40 114
a 21 38 0
e 1 2 3 4 5 6 7 8 9 10 11 12 13 14 15 16 17 18 19 20 22 23 24 25 26 27 28 29 30 31 32 33 34 35 36 37 39 40 0
3 2 0
3 -1 0
-2 1 -3 0
-4 -1 0
-4 3 0
1 -3 4 0
6 -4 0
6 5 0
4 -5 -6 0
8 7 0
8 -4 0
-7 4 -8 0
-10 1 0
-10 9 0
-1 -9 10 0
11 -1 0
11 -10 0
1 10 -11 0
12 -8 0
12 -11 0
8 11 -12 0
-14 13 0
-14 5 0
-13 -5 14 0
-14 7 -15 0
14 -7 -15 0
-14 -7 15 0
14 7 15 0
16 12 0
16 -15 0
-12 15 -16 0
-17 -6 0
-17 -16 0
6 16 17 0
-1 18 -19 0
1 -18 -19 0
-1 -18 19 0
1 18 19 0
20 -19 0
20 1 0
19 -1 -20 0
-21 20 0
-21 10 0
-20 -10 21 0
22 -5 0
22 3 0
5 -3 -22 0
-22 3 -23 0
22 -3 -23 0
-22 -3 23 0
22 3 23 0
-21 23 -24 0
21 -23 -24 0
-21 -23 24 0
21 23 24 0
25 17 0
25 24 0
-17 -24 -25 0
-26 -19 0
-26 20 0
19 -20 26 0
26 -23 -27 0
-26 23 -27 0
26 23 27 0
-26 -23 27 0
-28 -18 0
-28 -13 0
18 13 28 0
-29 27 0
-29 28 0
-27 -28 29 0
22 -14 -30 0
-22 14 -30 0
22 14 30 0
-22 -14 30 0
23 -30 -31 0
-23 30 -31 0
23 30 31 0
-23 -30 31 0
32 -29 0
32 -31 0
29 31 -32 0
33 1 0
33 26 0
-1 -26 -33 0
34 -18 0
34 33 0
18 -33 -34 0
35 32 0
35 34 0
-32 -34 -35 0
-36 -1 0
-36 18 0
1 -18 36 0
38 36 0
38 37 0
-36 -37 -38 0
-39 35 0
-39 -38 0
-35 38 39 0
-40 25 0
-40 -39 0
-25 39 40 0
23 18 -20 0
-19 -37 -16 -36 2 32 6 0
-32 18 14 3 -26 21 -39 0
-19 37 -3 31 -29 0
34 40 11 0
-4 27 12 37 16 7 -25 -14 0
-33 -6 32 -29 0
12 11 -22 -1 -26 13 0
-26 20 -4 -38 17 -1 -23 0
-33 -31 -7 39 -35 -23 -20 27 0
40 0
